c A SAT instance generated from a 3-CNF formula that had 22 clauses and 11 variables
p cnf 11 22
-7 6 -4 0
1 -2 -10 0
-10 1 11 0
4 -9 2 0
10 8 -1 0
-7 10 -5 0
-11 4 7 0
7 -5 2 0
4 -8 9 0
-11 7 -9 0
-2 -5 -11 0
-3 -9 8 0
3 -8 11 0
2 11 -9 0
9 11 -8 0
2 -5 7 0
7 8 -11 0
-8 1 -5 0
-6 8 -9 0
10 -6 5 0
-3 -7 6 0
6 1 -10 0
